L=18;
no=8;
njo=[9,8,9,9,7,7,7,7];
djo=[12,14,12,12,10,14,14,12];
trab=[6,6,2,6,6,2,6,2,2,2,6,3,6,3,6,4,2,2,3,2,3,18,2,2,2,6,3,6,2,6,12,3,2,3,2,2,4,4,6,3,2,6,6,12,6,2,3,12,2,12,4,2,6,6,6,2,2,18,6,6,3,3,2,6,2,3,4,2,3,6,12,18,12,2,3,3,6,3,3,3,3,4,2,6,3,3,12,6,6,2,2,2,3,12,4,3,6,6,2,2];
nprec=11;
prec=[| 11, 19,
      | 12, 26,
      | 23, 27,
      | 28, 40,
      | 34, 42,
      | 38, 46,
      | 40, 48,
      | 41, 49,
      | 45, 51,
      | 47, 56,
      | 54, 58 |];


%%%%%%%%%%%%%%%%%%%%%%%%%%%%%%%%%%%%%%%%%%%%%%%%%%%%%%%%%%%%%%%%%%%%%%
%  8
%
%  9   1   9  12  49
%  6   6   2   6   6   2   6   2   2   2   6   3 
%  1   1   1   0   0
%  1   2   2   0   0
%  1   3   3   0   0
%  1   4   4   0   0
%  1   5   5   0   0
%  1   6   6   0   0
%  1   7   7   0   0
%  1   8   8   0   0
%  1   9   9   0   0
%
%  8  10  17  14  61
%  6   3   6   4   2   2   3   2   3  18   2   2   2   6 
%  2   1  10   0   0
%  2   2  11   0   1
%      3   2  19
%  2   3  12   0   1
%      3   9  26
%  2   4  13   0   0
%  2   5  14   0   0
%  2   6  15   0   0
%  2   7  16   0   0
%  2   8  17   0   0
%
%  9  18  26  12  49
%  3   6   2   6  12   3   2   3   2   2   4   4 
%  3   1  18   0   0
%  3   2  19   1   0
%      2   2  11
%  3   3  20   0   0
%  3   4  21   0   0
%  3   5  22   0   0
%  3   6  23   0   1
%      4   1  27
%  3   7  24   0   0
%  3   8  25   0   0
%  3   9  26   1   0
%      2   3  12
%
%  9  27  35  12  72
%  6   3   2   6   6  12   6   2   3  12   2  12 
%  4   1  27   1   0
%      3   6  23
%  4   2  28   0   1
%      5   5  40
%  4   3  29   0   0
%  4   4  30   0   0
%  4   5  31   0   0
%  4   6  32   0   0
%  4   7  33   0   0
%  4   8  34   0   1
%      5   7  42
%  4   9  35   0   0
%
%  7  36  42  10  58
%  4   2   6   6   6   2   2  18   6   6 
%  5   1  36   0   0
%  5   2  37   0   0
%  5   3  38   0   1
%      6   4  46
%  5   4  39   0   0
%  5   5  40   1   1
%      4   2  28
%      6   6  48
%  5   6  41   0   1
%      6   7  49
%  5   7  42   1   0
%      4   8  34
%
%  7  43  49  14  78
%  3   3   2   6   2   3   4   2   3   6  12  18  12   2 
%  6   1  43   0   0
%  6   2  44   0   0
%  6   3  45   0   1
%      7   2  51
%  6   4  46   1   0
%      5   3  38
%  6   5  47   0   1
%      7   7  56
%  6   6  48   1   0
%      5   5  40
%  6   7  49   1   0
%      5   6  41
%
%  7  50  56  14  60
%  3   3   6   3   3   3   3   4   2   6   3   3  12   6 
%  7   1  50   0   0
%  7   2  51   1   0
%      6   3  45
%  7   3  52   0   0
%  7   4  53   0   0
%  7   5  54   0   1
%      8   2  58
%  7   6  55   0   0
%  7   7  56   1   0
%      6   5  47
%
%  7  57  63  12  50
%  6   2   2   2   3  12   4   3   6   6   2   2 
%  8   1  57   0   0
%  8   2  58   1   0
%      7   5  54
%  8   3  59   0   0
%  8   4  60   0   0
%  8   5  61   0   0
%  8   6  62   0   0
%  8   7  63   0   0
%
%196
